40
1 0 99
2 0 44
2 1 66
3 0 79
3 1 25
3 2 3
4 0 24
4 1 23
4 2 70
4 3 61
5 0 58
5 1 74
5 2 58
5 3 55
5 4 27
6 0 68
6 1 46
6 2 8
6 3 52
6 4 17
6 5 56
7 0 44
7 1 65
7 2 22
7 3 75
7 4 1
7 5 41
7 6 93
8 0 38
8 1 20
8 2 84
8 3 57
8 4 24
8 5 46
8 6 77
8 7 6
9 0 24
9 1 50
9 2 95
9 3 20
9 4 73
9 5 70
9 6 38
9 7 41
9 8 27
10 0 28
10 1 61
10 2 13
10 3 62
10 4 71
10 5 86
10 6 6
10 7 7
10 8 34
10 9 13
11 0 72
11 1 25
11 2 42
11 3 96
11 4 23
11 5 43
11 6 85
11 7 33
11 8 15
11 9 59
11 10 25
12 0 77
12 1 89
12 2 82
12 3 46
12 4 86
12 5 95
12 6 4
12 7 31
12 8 57
12 9 90
12 10 91
12 11 32
13 0 18
13 1 21
13 2 46
13 3 86
13 4 67
13 5 88
13 6 85
13 7 60
13 8 90
13 9 86
13 10 26
13 11 57
13 12 85
14 0 51
14 1 78
14 2 2
14 3 90
14 4 59
14 5 88
14 6 92
14 7 80
14 8 68
14 9 85
14 10 84
14 11 79
14 12 83
14 13 13
15 0 42
15 1 16
15 2 99
15 3 58
15 4 87
15 5 9
15 6 42
15 7 7
15 8 2
15 9 58
15 10 18
15 11 84
15 12 96
15 13 82
15 14 35
16 0 72
16 1 28
16 2 34
16 3 77
16 4 96
16 5 43
16 6 76
16 7 9
16 8 28
16 9 74
16 10 100
16 11 76
16 12 56
16 13 7
16 14 17
16 15 10
17 0 14
17 1 14
17 2 68
17 3 54
17 4 58
17 5 8
17 6 16
17 7 87
17 8 51
17 9 70
17 10 25
17 11 74
17 12 91
17 13 47
17 14 42
17 15 16
17 16 79
18 0 31
18 1 23
18 2 41
18 3 28
18 4 55
18 5 83
18 6 79
18 7 49
18 8 85
18 9 61
18 10 8
18 11 76
18 12 77
18 13 19
18 14 57
18 15 2
18 16 30
18 17 28
19 0 18
19 1 49
19 2 66
19 3 96
19 4 84
19 5 92
19 6 5
19 7 54
19 8 33
19 9 3
19 10 22
19 11 10
19 12 11
19 13 98
19 14 1
19 15 10
19 16 96
19 17 92
19 18 28
20 0 91
20 1 33
20 2 90
20 3 86
20 4 13
20 5 85
20 6 92
20 7 38
20 8 97
20 9 28
20 10 69
20 11 16
20 12 96
20 13 97
20 14 41
20 15 60
20 16 5
20 17 54
20 18 69
20 19 58
21 0 67
21 1 26
21 2 47
21 3 93
21 4 23
21 5 60
21 6 39
21 7 96
21 8 39
21 9 67
21 10 14
21 11 59
21 12 84
21 13 60
21 14 70
21 15 56
21 16 54
21 17 17
21 18 36
21 19 83
21 20 68
22 0 13
22 1 17
22 2 5
22 3 68
22 4 5
22 5 4
22 6 76
22 7 11
22 8 68
22 9 64
22 10 76
22 11 37
22 12 11
22 13 91
22 14 65
22 15 35
22 16 22
22 17 79
22 18 66
22 19 62
22 20 22
22 21 42
23 0 17
23 1 67
23 2 33
23 3 9
23 4 54
23 5 37
23 6 74
23 7 41
23 8 20
23 9 76
23 10 54
23 11 77
23 12 3
23 13 53
23 14 28
23 15 91
23 16 59
23 17 8
23 18 18
23 19 13
23 20 72
23 21 3
23 22 34
24 0 63
24 1 40
24 2 32
24 3 39
24 4 79
24 5 13
24 6 49
24 7 34
24 8 61
24 9 10
24 10 78
24 11 78
24 12 40
24 13 86
24 14 91
24 15 48
24 16 58
24 17 37
24 18 3
24 19 14
24 20 23
24 21 53
24 22 88
24 23 93
25 0 49
25 1 73
25 2 34
25 3 80
25 4 25
25 5 86
25 6 87
25 7 98
25 8 63
25 9 82
25 10 44
25 11 7
25 12 5
25 13 62
25 14 9
25 15 49
25 16 7
25 17 52
25 18 7
25 19 38
25 20 26
25 21 71
25 22 36
25 23 17
25 24 68
26 0 66
26 1 83
26 2 37
26 3 87
26 4 2
26 5 55
26 6 30
26 7 34
26 8 70
26 9 84
26 10 80
26 11 96
26 12 56
26 13 10
26 14 27
26 15 82
26 16 85
26 17 66
26 18 40
26 19 35
26 20 25
26 21 100
26 22 49
26 23 87
26 24 23
26 25 11
27 0 39
27 1 76
27 2 4
27 3 95
27 4 16
27 5 100
27 6 52
27 7 25
27 8 20
27 9 76
27 10 68
27 11 96
27 12 42
27 13 30
27 14 53
27 15 29
27 16 63
27 17 25
27 18 79
27 19 5
27 20 31
27 21 15
27 22 35
27 23 72
27 24 30
27 25 84
27 26 66
28 0 51
28 1 21
28 2 92
28 3 43
28 4 27
28 5 58
28 6 61
28 7 26
28 8 17
28 9 99
28 10 44
28 11 16
28 12 20
28 13 71
28 14 88
28 15 1
28 16 27
28 17 64
28 18 64
28 19 45
28 20 29
28 21 52
28 22 33
28 23 78
28 24 35
28 25 73
28 26 80
28 27 79
29 0 26
29 1 21
29 2 10
29 3 65
29 4 70
29 5 20
29 6 11
29 7 28
29 8 92
29 9 84
29 10 25
29 11 85
29 12 83
29 13 4
29 14 73
29 15 21
29 16 62
29 17 84
29 18 23
29 19 54
29 20 56
29 21 38
29 22 17
29 23 53
29 24 49
29 25 20
29 26 72
29 27 70
29 28 9
30 0 34
30 1 30
30 2 89
30 3 5
30 4 70
30 5 37
30 6 87
30 7 68
30 8 34
30 9 49
30 10 66
30 11 55
30 12 88
30 13 9
30 14 7
30 15 31
30 16 21
30 17 50
30 18 40
30 19 62
30 20 96
30 21 8
30 22 47
30 23 97
30 24 68
30 25 48
30 26 32
30 27 76
30 28 50
30 29 45
31 0 29
31 1 94
31 2 79
31 3 70
31 4 28
31 5 10
31 6 13
31 7 70
31 8 47
31 9 67
31 10 54
31 11 44
31 12 74
31 13 93
31 14 86
31 15 59
31 16 55
31 17 64
31 18 55
31 19 50
31 20 17
31 21 65
31 22 57
31 23 1
31 24 29
31 25 86
31 26 94
31 27 100
31 28 53
31 29 34
31 30 8
32 0 22
32 1 51
32 2 36
32 3 21
32 4 73
32 5 16
32 6 80
32 7 30
32 8 4
32 9 73
32 10 22
32 11 36
32 12 78
32 13 67
32 14 30
32 15 5
32 16 46
32 17 1
32 18 72
32 19 95
32 20 75
32 21 38
32 22 62
32 23 96
32 24 17
32 25 49
32 26 100
32 27 54
32 28 25
32 29 69
32 30 98
32 31 1
33 0 54
33 1 22
33 2 70
33 3 90
33 4 96
33 5 93
33 6 15
33 7 13
33 8 48
33 9 75
33 10 31
33 11 64
33 12 96
33 13 24
33 14 47
33 15 49
33 16 79
33 17 87
33 18 43
33 19 78
33 20 65
33 21 92
33 22 10
33 23 83
33 24 36
33 25 18
33 26 64
33 27 50
33 28 91
33 29 77
33 30 11
33 31 45
33 32 87
34 0 83
34 1 41
34 2 94
34 3 95
34 4 89
34 5 82
34 6 30
34 7 36
34 8 6
34 9 56
34 10 24
34 11 23
34 12 54
34 13 3
34 14 66
34 15 24
34 16 92
34 17 80
34 18 51
34 19 18
34 20 39
34 21 45
34 22 100
34 23 25
34 24 76
34 25 77
34 26 12
34 27 5
34 28 86
34 29 100
34 30 36
34 31 84
34 32 95
34 33 14
35 0 89
35 1 38
35 2 87
35 3 39
35 4 91
35 5 43
35 6 35
35 7 33
35 8 61
35 9 74
35 10 60
35 11 48
35 12 12
35 13 14
35 14 100
35 15 17
35 16 44
35 17 7
35 18 76
35 19 98
35 20 1
35 21 47
35 22 58
35 23 20
35 24 69
35 25 24
35 26 86
35 27 93
35 28 5
35 29 32
35 30 4
35 31 97
35 32 43
35 33 28
35 34 88
36 0 46
36 1 12
36 2 1
36 3 4
36 4 93
36 5 49
36 6 76
36 7 5
36 8 39
36 9 15
36 10 73
36 11 63
36 12 35
36 13 29
36 14 88
36 15 2
36 16 12
36 17 83
36 18 82
36 19 59
36 20 75
36 21 8
36 22 71
36 23 7
36 24 30
36 25 95
36 26 64
36 27 7
36 28 48
36 29 1
36 30 9
36 31 80
36 32 81
36 33 84
36 34 17
36 35 1
37 0 75
37 1 57
37 2 80
37 3 80
37 4 55
37 5 44
37 6 22
37 7 66
37 8 76
37 9 89
37 10 26
37 11 81
37 12 55
37 13 46
37 14 41
37 15 98
37 16 41
37 17 44
37 18 53
37 19 88
37 20 83
37 21 19
37 22 72
37 23 22
37 24 97
37 25 50
37 26 91
37 27 98
37 28 57
37 29 37
37 30 84
37 31 20
37 32 39
37 33 12
37 34 77
37 35 65
37 36 14
38 0 74
38 1 1
38 2 94
38 3 62
38 4 84
38 5 2
38 6 14
38 7 39
38 8 64
38 9 80
38 10 87
38 11 48
38 12 83
38 13 75
38 14 44
38 15 69
38 16 27
38 17 24
38 18 43
38 19 59
38 20 86
38 21 57
38 22 94
38 23 36
38 24 3
38 25 100
38 26 32
38 27 88
38 28 66
38 29 14
38 30 100
38 31 88
38 32 49
38 33 85
38 34 100
38 35 5
38 36 13
38 37 32
39 0 97
39 1 31
39 2 47
39 3 16
39 4 95
39 5 72
39 6 91
39 7 55
39 8 29
39 9 68
39 10 75
39 11 78
39 12 19
39 13 52
39 14 81
39 15 86
39 16 4
39 17 49
39 18 86
39 19 83
39 20 44
39 21 78
39 22 64
39 23 11
39 24 45
39 25 17
39 26 50
39 27 95
39 28 65
39 29 29
39 30 85
39 31 85
39 32 92
39 33 75
39 34 8
39 35 47
39 36 13
39 37 53
39 38 56
